49 531
1 4 5 7 11 13 21 22 25 26 28 29 31 34 35 36 42 43 45
0 6 9 10 11 12 14 15 17 19 23 24 25 26 28 30 31 32 33 34 35 37 38 39 40 46 47 48
3 4 5 6 7 8 9 10 11 12 13 14 16 18 19 23 26 27 29 30 35 37 38 41 43 45 46 47
2 5 6 7 14 15 16 17 18 19 20 21 22 25 29 38 39 40 46
0 2 6 7 10 12 13 14 15 17 19 22 23 24 26 30 34 36 37 39 40 41 43 44 45 47
0 2 3 9 11 13 14 15 17 18 20 21 23 27 28 29 36 37 42 43 44 45 47
1 2 3 4 7 8 10 11 12 18 19 20 21 24 25 26 27 28 29 30 32 34 37 38 40 41 43 44 46
0 2 3 4 6 8 10 11 13 14 15 17 18 21 22 23 26 35 37 38 39 40 42 44 46
2 6 7 9 10 13 15 19 23 26 28 30 31 34 37 38 39 43
1 2 5 8 10 11 12 17 18 24 25 27 30 32 35 36 38 39 45 46 47 48
1 2 4 6 7 8 9 12 15 16 19 20 22 23 24 28 30 39 43 45
0 1 2 5 6 7 9 13 14 20 21 23 24 25 26 27 29 31 32 34 35 36 39 44 46 47
1 2 4 6 9 10 16 18 19 20 27 32 34 35 42 43 44 46 47 48
0 2 4 5 7 8 11 15 17 19 21 22 28 29 30 31 32 33 37 40 41 42 43 44 45 48
1 2 3 4 5 7 11 15 17 20 21 24 28 29 30 31 34 35 38 41 42
1 3 4 5 7 8 10 13 14 18 22 23 26 27 31 35 37 38 40 42 44 46 48
2 3 10 12 18 19 22 26 28 30 31 32 33 40 41 42 43 46 47
1 3 4 5 7 9 13 14 22 23 26 29 31 32 33 34 36 38 39 40 43 44 45 46 47 48
2 3 5 6 7 9 12 15 16 20 21 23 24 29 33 34 35 36 39 40 46 47 48
1 2 3 4 6 8 10 12 13 16 22 23 26 27 28 29 35 36 37 39 40
3 5 6 10 11 12 14 18 23 24 27 28 31 32 35 36 38 40 41 42 45 47
0 3 5 6 7 11 13 14 18 23 26 29 30 31 32 37 38 42 43
0 3 4 7 10 13 15 16 17 19 33 35 39 43 44 47 48
1 2 4 5 7 8 10 11 15 17 18 19 20 21 24 25 26 28 29 30 33 34 37 38 39 40 41 43 45 46
1 4 6 9 10 11 14 18 20 23 28 30 31 33 34 35 42 45 47 48
0 1 3 6 9 11 23 33 34 37 38 40 42 45 46 48
0 1 2 4 6 7 8 11 15 16 17 19 21 23 28 35 37 38 43 45 48
2 5 6 9 11 12 15 19 20 30 32 33 37 40 44 47 48
0 1 5 6 8 10 13 14 16 19 20 23 24 26 29 30 32 38 39 40 41 42 47 48
0 2 3 5 6 11 13 14 17 18 19 21 23 28 31 32 34 36 39 41 42 44 45
1 2 4 6 8 9 10 13 14 16 21 23 24 27 28 33 39 41 42 43 45 46
0 1 8 11 13 14 15 16 17 20 21 24 29 38 39 40 41 42 43 48
1 6 9 11 12 13 16 17 20 21 27 28 29 35 42 43 45 46
1 13 16 17 18 22 23 24 25 27 30 34 35 36 41 42 45
0 1 4 6 8 11 12 14 17 18 23 24 25 29 33 38 40 41 43 45 48
0 1 2 7 9 11 12 14 15 18 19 20 22 24 26 32 33 36 38 40 41 44 46 47
0 4 5 9 11 17 18 19 20 29 33 35 45 47
1 2 4 5 6 7 8 13 15 19 21 23 25 26 27 41 45
1 2 3 6 7 8 9 14 15 17 20 21 23 25 26 28 31 34 35 39 43 44 45 48
1 3 4 7 8 9 10 11 17 18 19 22 23 28 29 30 31 38 40 43 45
1 3 4 6 7 13 15 16 17 18 19 20 23 25 27 28 31 34 35 39 41 43 44 48
2 4 6 13 14 16 20 23 28 29 30 31 33 34 35 37 40 44 45 46 48
0 5 7 12 13 14 15 16 20 21 24 25 28 29 30 31 32 33 43 44 45
0 2 4 5 6 8 10 12 13 16 17 21 22 23 26 30 31 32 34 38 39 40 42 46 48
4 5 6 7 11 12 13 15 17 22 27 29 35 38 40 41 42 47
0 2 4 5 9 10 13 17 20 23 24 25 26 29 30 32 33 34 36 37 38 39 41 42 47
1 2 3 6 7 9 11 12 15 16 17 18 23 25 30 32 35 41 43 48
1 2 4 5 9 11 12 16 17 18 20 22 24 27 28 35 36 44 45
1 9 12 13 15 17 18 22 24 25 26 27 28 31 34 38 40 41 43 46
